networks/zoo_110_1188/zoo_110_1188.txt
Number of groups: 67
Flow 2: {1 30} {30 85} 
Flow 12: {2 5} {5 9} {9 20} {20 75} 
Flow 41: {13 26} {26 81} 
Flow 52: {44 37} {37 92} 
Flow 61: {3 30} {30 14} {14 53} {53 108} 
Flow 65: {4 32} {32 30} {30 3} {3 58} 
Flow 156: {17 38} {38 93} 
Flow 158: {6 50} {50 9} {9 41} {41 96} 
Flow 159: {44 42} {42 97} 
Flow 168: {13 52} {52 107} 
Flow 177: {7 50} {50 17} 
Flow 189: {8 5} {5 50} {50 6} {6 61} 
Flow 206: {9 40} {40 7} {7 62} 
Flow 207: {5 8} {8 63} 
Flow 223: {41 13} {13 29} {29 84} 
Flow 252: {10 9} {9 50} {50 32} {32 51} {51 106} 
Flow 255: {11 19} {19 20} 
Flow 258: {12 26} {26 13} 
Flow 276: {20 18} {18 73} 
Flow 277: {20 19} {19 74} 
Flow 312: {41 55} {55 110} 
Flow 363: {15 29} {29 13} {13 50} {50 105} 
Flow 391: {32 34} {34 54} {54 109} 
Flow 425: {17 44} {44 45} {45 100} 
Flow 435: {18 20} 
Flow 456: {21 20} {20 17} {17 72} 
Flow 476: {22 20} {20 9} 
Flow 481: {23 32} {32 87} 
Flow 488: {19 11} {11 66} 
Flow 500: {24 32} {32 14} {14 31} {31 86} 
Flow 505: {17 36} {36 91} 
Flow 522: {25 50} {50 54} 
Flow 543: {26 54} {54 34} {34 89} 
Flow 555: {27 26} 
Flow 563: {28 29} {29 30} {30 1} {1 56} 
Flow 590: {26 27} {27 82} 
Flow 595: {29 16} {16 51} {51 33} {33 88} 
Flow 651: {44 99} 
Flow 655: {14 48} {48 103} 
Flow 668: {31 14} {14 69} 
Flow 717: {50 7} {7 40} {40 95} 
Flow 743: {33 51} {51 16} {16 71} 
Flow 760: {33 32} {32 46} {46 101} 
Flow 786: {35 54} {54 26} {26 12} {12 67} 
Flow 814: {36 17} {17 50} {50 39} 
Flow 825: {37 44} {44 13} {13 30} {30 47} {47 102} 
Flow 830: {39 9} {9 5} {5 2} {2 57} 
Flow 835: {39 50} {50 13} {13 68} 
Flow 860: {40 9} {9 39} {39 94} 
Flow 883: {42 44} 
Flow 890: {43 44} 
Flow 909: {20 21} {21 76} 
Flow 910: {44 17} {17 20} {20 22} {22 77} 
Flow 937: {45 44} 
Flow 953: {46 32} {32 35} {35 90} 
Flow 962: {30 32} {32 4} {4 59} 
Flow 968: {47 30} {30 29} {29 15} {15 70} 
Flow 993: {48 14} {14 30} {30 51} 
Flow 1002: {49 35} {35 32} {32 23} {23 78} 
Flow 1067: {51 32} {32 50} {50 5} {5 60} 
Flow 1087: {16 29} {29 28} {28 83} 
Flow 1101: {51 30} {30 13} {13 44} {44 43} {43 98} 
Flow 1114: {52 13} {13 41} {41 9} {9 64} 
Flow 1135: {53 14} {14 32} {32 33} 
Flow 1161: {34 32} {32 24} {24 79} 
Flow 1162: {54 50} {50 25} {25 80} 
Flow 1184: {54 35} {35 49} {49 104} 
Time taken running everything: 38 seconds
