networks/zoo_110_1188/zoo_110_1188.sol
<?xml version = "1.0" encoding="UTF-8" standalone="yes"?>
<CPLEXSolution version="1.2">
 <header
   problemName="networks/zoo_110_1188/zoo_110_1188.lp"
   solutionName="incumbent"
   solutionIndex="-1"
   objectiveValue="67"
   solutionTypeValue="3"
   solutionTypeString="primal"
   solutionStatusValue="101"
   solutionStatusString="integer optimal solution"
   solutionMethodString="mip"
   primalFeasible="1"
   dualFeasible="1"
   MIPNodes="0"
   MIPIterations="40220"
   writeLevel="3"/>
 <quality
   epInt="1.0000000000000001e-05"
   epRHS="9.9999999999999995e-07"
   maxIntInfeas="2.4999380343615485e-10"
   maxPrimalInfeas="0"
   maxX="4"
   maxSlack="10"/>
 <variables>
  <variable name="Y(2,30)" index="138" value="1"/>
  <variable name="Y(12,20)" index="1218" value="1"/>
  <variable name="Y(41,26)" index="4385" value="1"/>
  <variable name="Y(52,37)" index="5595" value="1"/>
  <variable name="Y(61,53)" index="6592" value="1"/>
  <variable name="Y(65,3)" index="6978" value="1"/>
  <variable name="Y(156,38)" index="16932" value="1"/>
  <variable name="Y(158,41)" index="17153" value="1"/>
  <variable name="Y(159,42)" index="17263" value="1"/>
  <variable name="Y(168,52)" index="18254" value="1"/>
  <variable name="Y(177,50)" index="19233" value="1"/>
  <variable name="Y(189,6)" index="20497" value="1"/>
  <variable name="Y(206,7)" index="22351" value="1"/>
  <variable name="Y(207,8)" index="22461" value="1"/>
  <variable name="Y(223,29)" index="24226" value="1"/>
  <variable name="Y(252,51)" index="27409" value="1"/>
  <variable name="Y(255,19)" index="27704" value="1"/>
  <variable name="Y(258,26)" index="28038" value="1"/>
  <variable name="Y(276,18)" index="29992" value="1"/>
  <variable name="Y(277,19)" index="30102" value="1"/>
  <variable name="Y(312,55)" index="33953" value="1"/>
  <variable name="Y(363,50)" index="39507" value="1"/>
  <variable name="Y(391,54)" index="42563" value="1"/>
  <variable name="Y(425,45)" index="46260" value="1"/>
  <variable name="Y(435,18)" index="47323" value="1"/>
  <variable name="Y(456,17)" index="49611" value="1"/>
  <variable name="Y(476,20)" index="51794" value="1"/>
  <variable name="Y(481,32)" index="52351" value="1"/>
  <variable name="Y(488,11)" index="53093" value="1"/>
  <variable name="Y(500,31)" index="54421" value="1"/>
  <variable name="Y(505,36)" index="54971" value="1"/>
  <variable name="Y(522,50)" index="56838" value="1"/>
  <variable name="Y(543,34)" index="59111" value="1"/>
  <variable name="Y(555,27)" index="60412" value="1"/>
  <variable name="Y(563,1)" index="61258" value="1"/>
  <variable name="Y(590,27)" index="64227" value="1"/>
  <variable name="Y(595,33)" index="64778" value="1"/>
  <variable name="Y(651,44)" index="70893" value="1"/>
  <variable name="Y(655,48)" index="71333" value="1"/>
  <variable name="Y(668,14)" index="72716" value="1"/>
  <variable name="Y(717,40)" index="78083" value="1"/>
  <variable name="Y(743,16)" index="80893" value="1"/>
  <variable name="Y(760,46)" index="82776" value="1"/>
  <variable name="Y(786,12)" index="85576" value="1"/>
  <variable name="Y(814,50)" index="88666" value="1"/>
  <variable name="Y(825,47)" index="89862" value="1"/>
  <variable name="Y(830,2)" index="90362" value="1"/>
  <variable name="Y(835,13)" index="90918" value="1"/>
  <variable name="Y(860,39)" index="93669" value="1"/>
  <variable name="Y(883,42)" index="96179" value="1"/>
  <variable name="Y(890,43)" index="96943" value="1"/>
  <variable name="Y(909,21)" index="98992" value="1"/>
  <variable name="Y(910,22)" index="99102" value="1"/>
  <variable name="Y(937,45)" index="102068" value="1"/>
  <variable name="Y(953,35)" index="103802" value="1"/>
  <variable name="Y(962,4)" index="104752" value="1"/>
  <variable name="Y(968,15)" index="105417" value="1"/>
  <variable name="Y(993,30)" index="108157" value="1"/>
  <variable name="Y(1002,23)" index="109131" value="1"/>
  <variable name="Y(1067,5)" index="116198" value="1"/>
  <variable name="Y(1087,28)" index="118401" value="1"/>
  <variable name="Y(1101,43)" index="119942" value="1"/>
  <variable name="Y(1114,9)" index="121325" value="1"/>
  <variable name="Y(1135,32)" index="123637" value="1"/>
  <variable name="Y(1161,24)" index="126463" value="1"/>
  <variable name="Y(1162,25)" index="126573" value="1"/>
  <variable name="Y(1184,49)" index="128995" value="1"/>
  <variable name="X(1,30,2)" index="129493" value="1"/>
  <variable name="X(1,56,563)" index="131242" value="1"/>
  <variable name="X(2,5,12)" index="131879" value="1"/>
  <variable name="X(2,57,830)" index="133885" value="1"/>
  <variable name="X(3,30,61)" index="134304" value="1"/>
  <variable name="X(3,58,65)" index="135496" value="1"/>
  <variable name="X(4,32,65)" index="136684" value="1"/>
  <variable name="X(4,59,962)" index="138769" value="1"/>
  <variable name="X(5,2,830)" index="139825" value="1"/>
  <variable name="X(5,8,207)" index="140390" value="1"/>
  <variable name="X(5,9,12)" index="141383" value="1"/>
  <variable name="X(5,50,189)" index="142748" value="1"/>
  <variable name="X(5,60,1067)" index="144814" value="1"/>
  <variable name="X(6,50,158)" index="145093" value="1"/>
  <variable name="X(6,61,189)" index="146312" value="1"/>
  <variable name="X(7,40,717)" index="148028" value="1"/>
  <variable name="X(7,50,177)" index="148676" value="1"/>
  <variable name="X(7,62,206)" index="149893" value="1"/>
  <variable name="X(8,5,189)" index="151064" value="1"/>
  <variable name="X(8,63,207)" index="152270" value="1"/>
  <variable name="X(9,5,830)" index="154081" value="1"/>
  <variable name="X(9,20,12)" index="154451" value="1"/>
  <variable name="X(9,39,860)" index="156487" value="1"/>
  <variable name="X(9,40,206)" index="157021" value="1"/>
  <variable name="X(9,41,158)" index="158161" value="1"/>
  <variable name="X(9,50,252)" index="159443" value="1"/>
  <variable name="X(9,64,1114)" index="161493" value="1"/>
  <variable name="X(10,9,252)" index="161819" value="1"/>
  <variable name="X(11,19,255)" index="163010" value="1"/>
  <variable name="X(11,66,488)" index="164431" value="1"/>
  <variable name="X(12,26,258)" index="165389" value="1"/>
  <variable name="X(12,67,786)" index="167105" value="1"/>
  <variable name="X(13,26,41)" index="167548" value="1"/>
  <variable name="X(13,29,223)" index="168918" value="1"/>
  <variable name="X(13,30,825)" index="170708" value="1"/>
  <variable name="X(13,41,1114)" index="172185" value="1"/>
  <variable name="X(13,44,1101)" index="173360" value="1"/>
  <variable name="X(13,50,363)" index="173810" value="1"/>
  <variable name="X(13,52,168)" index="174803" value="1"/>
  <variable name="X(13,68,835)" index="176658" value="1"/>
  <variable name="X(14,30,993)" index="178004" value="1"/>
  <variable name="X(14,31,500)" index="178699" value="1"/>
  <variable name="X(14,32,1135)" index="180522" value="1"/>
  <variable name="X(14,48,655)" index="181230" value="1"/>
  <variable name="X(14,53,61)" index="181824" value="1"/>
  <variable name="X(14,69,668)" index="183619" value="1"/>
  <variable name="X(15,29,363)" index="184502" value="1"/>
  <variable name="X(15,70,968)" index="186295" value="1"/>
  <variable name="X(16,29,1087)" index="187602" value="1"/>
  <variable name="X(16,51,595)" index="188298" value="1"/>
  <variable name="X(16,71,743)" index="189634" value="1"/>
  <variable name="X(17,20,910)" index="190989" value="1"/>
  <variable name="X(17,36,505)" index="191772" value="1"/>
  <variable name="X(17,38,156)" index="192611" value="1"/>
  <variable name="X(17,44,425)" index="194068" value="1"/>
  <variable name="X(17,50,814)" index="195645" value="1"/>
  <variable name="X(17,72,456)" index="196475" value="1"/>
  <variable name="X(18,20,435)" index="197642" value="1"/>
  <variable name="X(18,73,276)" index="198671" value="1"/>
  <variable name="X(19,11,488)" index="200071" value="1"/>
  <variable name="X(19,20,255)" index="201026" value="1"/>
  <variable name="X(19,74,277)" index="202236" value="1"/>
  <variable name="X(20,9,476)" index="203623" value="1"/>
  <variable name="X(20,17,456)" index="204791" value="1"/>
  <variable name="X(20,18,276)" index="205799" value="1"/>
  <variable name="X(20,19,277)" index="206988" value="0.9999999997500062"/>
  <variable name="X(20,19,488)" index="207199" value="2.4999377084082172e-10"/>
  <variable name="X(20,21,909)" index="208808" value="1"/>
  <variable name="X(20,22,910)" index="209997" value="1"/>
  <variable name="X(20,75,12)" index="210287" value="1"/>
  <variable name="X(21,20,456)" index="211919" value="1"/>
  <variable name="X(21,76,909)" index="213560" value="1"/>
  <variable name="X(22,20,476)" index="214315" value="1"/>
  <variable name="X(22,77,910)" index="215937" value="1"/>
  <variable name="X(23,32,481)" index="216696" value="1"/>
  <variable name="X(23,78,1002)" index="218405" value="1"/>
  <variable name="X(24,32,500)" index="219091" value="1"/>
  <variable name="X(24,79,1161)" index="220940" value="1"/>
  <variable name="X(25,50,522)" index="221489" value="1"/>
  <variable name="X(25,80,1162)" index="223317" value="1"/>
  <variable name="X(26,12,786)" index="224129" value="1"/>
  <variable name="X(26,13,258)" index="224789" value="1"/>
  <variable name="X(26,27,590)" index="226309" value="1"/>
  <variable name="X(26,54,543)" index="227450" value="1"/>
  <variable name="X(26,81,41)" index="228136" value="1"/>
  <variable name="X(27,26,555)" index="229838" value="1"/>
  <variable name="X(27,82,590)" index="231061" value="1"/>
  <variable name="X(28,29,563)" index="232222" value="1"/>
  <variable name="X(28,83,1087)" index="233934" value="1"/>
  <variable name="X(29,13,363)" index="234398" value="1"/>
  <variable name="X(29,15,968)" index="236191" value="1"/>
  <variable name="X(29,16,595)" index="237006" value="1"/>
  <variable name="X(29,28,1087)" index="238686" value="1"/>
  <variable name="X(29,30,563)" index="239350" value="1"/>
  <variable name="X(29,84,223)" index="240198" value="1"/>
  <variable name="X(30,1,563)" index="241726" value="1"/>
  <variable name="X(30,3,65)" index="242416" value="1"/>
  <variable name="X(30,13,1101)" index="244640" value="1"/>
  <variable name="X(30,14,61)" index="244788" value="1"/>
  <variable name="X(30,29,968)" index="246883" value="1"/>
  <variable name="X(30,32,962)" index="248065" value="1"/>
  <variable name="X(30,47,825)" index="249116" value="1"/>
  <variable name="X(30,51,993)" index="250472" value="1"/>
  <variable name="X(30,85,2)" index="250669" value="1"/>
  <variable name="X(31,14,668)" index="252523" value="1"/>
  <variable name="X(31,86,500)" index="253543" value="1"/>
  <variable name="X(32,4,962)" index="255193" value="1"/>
  <variable name="X(32,14,500)" index="255919" value="1"/>
  <variable name="X(32,23,1002)" index="257609" value="1"/>
  <variable name="X(32,24,1161)" index="258956" value="1"/>
  <variable name="X(32,30,65)" index="259048" value="1"/>
  <variable name="X(32,33,1135)" index="261306" value="1"/>
  <variable name="X(32,34,391)" index="261750" value="1"/>
  <variable name="X(32,35,953)" index="263500" value="1"/>
  <variable name="X(32,46,760)" index="264495" value="1"/>
  <variable name="X(32,50,1067)" index="265990" value="1"/>
  <variable name="X(32,51,252)" index="266363" value="1"/>
  <variable name="X(32,87,481)" index="267780" value="1"/>
  <variable name="X(33,32,760)" index="269247" value="1"/>
  <variable name="X(33,51,743)" index="270418" value="1"/>
  <variable name="X(33,88,595)" index="271458" value="1"/>
  <variable name="X(34,32,1161)" index="273212" value="1"/>
  <variable name="X(34,54,391)" index="273630" value="1"/>
  <variable name="X(34,89,543)" index="274970" value="1"/>
  <variable name="X(35,32,1002)" index="276617" value="1"/>
  <variable name="X(35,49,1184)" index="277987" value="1"/>
  <variable name="X(35,54,786)" index="278777" value="1"/>
  <variable name="X(35,90,953)" index="280132" value="1"/>
  <variable name="X(36,17,814)" index="281181" value="1"/>
  <variable name="X(36,91,505)" index="282060" value="1"/>
  <variable name="X(37,44,825)" index="283568" value="1"/>
  <variable name="X(37,92,52)" index="283983" value="1"/>
  <variable name="X(38,93,156)" index="285275" value="1"/>
  <variable name="X(39,9,830)" index="287137" value="1"/>
  <variable name="X(39,50,835)" index="288330" value="1"/>
  <variable name="X(39,94,860)" index="289543" value="1"/>
  <variable name="X(40,7,206)" index="290077" value="1"/>
  <variable name="X(40,9,860)" index="291919" value="1"/>
  <variable name="X(40,95,717)" index="292964" value="1"/>
  <variable name="X(41,9,1114)" index="294549" value="1"/>
  <variable name="X(41,13,223)" index="294846" value="1"/>
  <variable name="X(41,55,312)" index="296123" value="1"/>
  <variable name="X(41,96,158)" index="297157" value="1"/>
  <variable name="X(42,44,883)" index="299070" value="1"/>
  <variable name="X(42,97,159)" index="299534" value="1"/>
  <variable name="X(43,44,890)" index="301453" value="1"/>
  <variable name="X(43,98,1101)" index="302852" value="1"/>
  <variable name="X(44,13,825)" index="303764" value="1"/>
  <variable name="X(44,17,910)" index="305037" value="1"/>
  <variable name="X(44,37,52)" index="305367" value="1"/>
  <variable name="X(44,42,159)" index="306662" value="1"/>
  <variable name="X(44,43,1101)" index="308792" value="1"/>
  <variable name="X(44,45,425)" index="309304" value="1"/>
  <variable name="X(44,99,651)" index="310718" value="1"/>
  <variable name="X(45,44,937)" index="312192" value="1"/>
  <variable name="X(45,100,425)" index="312868" value="1"/>
  <variable name="X(46,32,953)" index="314584" value="1"/>
  <variable name="X(46,101,760)" index="315579" value="1"/>
  <variable name="X(47,30,968)" index="316975" value="1"/>
  <variable name="X(47,102,825)" index="318020" value="1"/>
  <variable name="X(48,14,993)" index="319376" value="1"/>
  <variable name="X(48,103,655)" index="320226" value="1"/>
  <variable name="X(49,35,1002)" index="321761" value="1"/>
  <variable name="X(49,104,1184)" index="323131" value="1"/>
  <variable name="X(50,5,1067)" index="324202" value="1"/>
  <variable name="X(50,6,189)" index="324512" value="1"/>
  <variable name="X(50,7,717)" index="326228" value="1"/>
  <variable name="X(50,9,158)" index="326857" value="1"/>
  <variable name="X(50,13,835)" index="328722" value="1"/>
  <variable name="X(50,17,177)" index="329252" value="1"/>
  <variable name="X(50,25,1162)" index="331425" value="1"/>
  <variable name="X(50,32,252)" index="331703" value="1"/>
  <variable name="X(50,39,814)" index="333453" value="1"/>
  <variable name="X(50,54,522)" index="334349" value="1"/>
  <variable name="X(50,105,363)" index="335378" value="1"/>
  <variable name="X(51,16,743)" index="336946" value="1"/>
  <variable name="X(51,30,1101)" index="338492" value="1"/>
  <variable name="X(51,32,1067)" index="339646" value="1"/>
  <variable name="X(51,33,595)" index="340362" value="1"/>
  <variable name="X(51,106,252)" index="341207" value="1"/>
  <variable name="X(52,13,1114)" index="343257" value="1"/>
  <variable name="X(52,107,168)" index="343499" value="1"/>
  <variable name="X(53,14,1135)" index="345654" value="1"/>
  <variable name="X(53,108,61)" index="345768" value="1"/>
  <variable name="X(54,26,786)" index="347681" value="1"/>
  <variable name="X(54,34,543)" index="348626" value="1"/>
  <variable name="X(54,35,1184)" index="350455" value="1"/>
  <variable name="X(54,50,1162)" index="351621" value="1"/>
  <variable name="X(54,109,391)" index="352038" value="1"/>
  <variable name="X(55,110,312)" index="353147" value="1"/>
  <variable name="C(2,30)" index="354028" value="1"/>
  <variable name="C(12,5)" index="354070" value="1"/>
  <variable name="C(12,9)" index="354071" value="2"/>
  <variable name="C(12,20)" index="354072" value="3"/>
  <variable name="C(41,26)" index="354212" value="1"/>
  <variable name="C(52,37)" index="354256" value="1"/>
  <variable name="C(61,30)" index="354291" value="1"/>
  <variable name="C(61,14)" index="354292" value="2"/>
  <variable name="C(61,53)" index="354293" value="3"/>
  <variable name="C(65,32)" index="354309" value="1"/>
  <variable name="C(65,30)" index="354310" value="2"/>
  <variable name="C(65,3)" index="354311" value="3"/>
  <variable name="C(156,38)" index="354671" value="1"/>
  <variable name="C(158,50)" index="354676" value="1"/>
  <variable name="C(158,9)" index="354677" value="2"/>
  <variable name="C(158,41)" index="354678" value="3"/>
  <variable name="C(159,42)" index="354683" value="1"/>
  <variable name="C(168,52)" index="354721" value="1"/>
  <variable name="C(177,50)" index="354754" value="1"/>
  <variable name="C(189,5)" index="354799" value="1"/>
  <variable name="C(189,50)" index="354800" value="2"/>
  <variable name="C(189,6)" index="354801" value="3"/>
  <variable name="C(206,40)" index="354870" value="1"/>
  <variable name="C(206,7)" index="354871" value="2"/>
  <variable name="C(207,8)" index="354874" value="1"/>
  <variable name="C(223,13)" index="354935" value="1"/>
  <variable name="C(223,29)" index="354936" value="2"/>
  <variable name="C(252,9)" index="355054" value="1"/>
  <variable name="C(252,50)" index="355055" value="2"/>
  <variable name="C(252,32)" index="355056" value="3"/>
  <variable name="C(252,51)" index="355057" value="4"/>
  <variable name="C(255,19)" index="355069" value="1"/>
  <variable name="C(258,26)" index="355087" value="1"/>
  <variable name="C(276,18)" index="355153" value="1"/>
  <variable name="C(277,19)" index="355158" value="0.9999999997500062"/>
  <variable name="C(312,55)" index="355274" value="1"/>
  <variable name="C(363,29)" index="355470" value="1"/>
  <variable name="C(363,13)" index="355471" value="2"/>
  <variable name="C(363,50)" index="355472" value="3"/>
  <variable name="C(391,34)" index="355585" value="1"/>
  <variable name="C(391,54)" index="355586" value="2"/>
  <variable name="C(425,44)" index="355712" value="1"/>
  <variable name="C(425,45)" index="355713" value="2"/>
  <variable name="C(456,20)" index="355846" value="1"/>
  <variable name="C(456,17)" index="355847" value="2"/>
  <variable name="C(476,20)" index="355950" value="1"/>
  <variable name="C(481,32)" index="355972" value="1"/>
  <variable name="C(488,19)" index="356002" value="1.000000082740371e-09"/>
  <variable name="C(488,11)" index="356003" value="1.0000000010000001"/>
  <variable name="C(500,32)" index="356051" value="1"/>
  <variable name="C(500,14)" index="356052" value="2"/>
  <variable name="C(500,31)" index="356053" value="3"/>
  <variable name="C(505,36)" index="356069" value="1"/>
  <variable name="C(522,50)" index="356133" value="1"/>
  <variable name="C(543,54)" index="356219" value="1"/>
  <variable name="C(543,34)" index="356220" value="2"/>
  <variable name="C(563,29)" index="356297" value="1"/>
  <variable name="C(563,30)" index="356298" value="2"/>
  <variable name="C(563,1)" index="356299" value="3"/>
  <variable name="C(590,27)" index="356405" value="1"/>
  <variable name="C(595,16)" index="356418" value="1"/>
  <variable name="C(595,51)" index="356419" value="2"/>
  <variable name="C(595,33)" index="356420" value="3"/>
  <variable name="C(655,48)" index="356646" value="1"/>
  <variable name="C(668,14)" index="356693" value="1"/>
  <variable name="C(717,7)" index="356869" value="1"/>
  <variable name="C(717,40)" index="356870" value="2"/>
  <variable name="C(743,51)" index="356971" value="1"/>
  <variable name="C(743,16)" index="356972" value="2"/>
  <variable name="C(760,32)" index="357042" value="1"/>
  <variable name="C(760,46)" index="357043" value="2"/>
  <variable name="C(786,54)" index="357134" value="1"/>
  <variable name="C(786,26)" index="357135" value="2"/>
  <variable name="C(786,12)" index="357136" value="3"/>
  <variable name="C(814,17)" index="357237" value="1"/>
  <variable name="C(814,50)" index="357238" value="2"/>
  <variable name="C(825,44)" index="357284" value="1"/>
  <variable name="C(825,13)" index="357285" value="2"/>
  <variable name="C(825,30)" index="357286" value="3"/>
  <variable name="C(825,47)" index="357287" value="4"/>
  <variable name="C(830,9)" index="357308" value="1"/>
  <variable name="C(830,5)" index="357309" value="2"/>
  <variable name="C(830,2)" index="357310" value="3"/>
  <variable name="C(835,50)" index="357326" value="1"/>
  <variable name="C(835,13)" index="357327" value="2"/>
  <variable name="C(860,9)" index="357427" value="1"/>
  <variable name="C(860,39)" index="357428" value="2"/>
  <variable name="C(909,21)" index="357625" value="1"/>
  <variable name="C(910,17)" index="357627" value="1"/>
  <variable name="C(910,20)" index="357628" value="2"/>
  <variable name="C(910,22)" index="357629" value="3"/>
  <variable name="C(953,32)" index="357792" value="1"/>
  <variable name="C(953,35)" index="357793" value="2"/>
  <variable name="C(962,32)" index="357826" value="1"/>
  <variable name="C(962,4)" index="357827" value="2"/>
  <variable name="C(968,30)" index="357850" value="1"/>
  <variable name="C(968,29)" index="357851" value="2"/>
  <variable name="C(968,15)" index="357852" value="3"/>
  <variable name="C(993,14)" index="357949" value="1"/>
  <variable name="C(993,30)" index="357950" value="2"/>
  <variable name="C(1002,35)" index="357992" value="1"/>
  <variable name="C(1002,32)" index="357993" value="2"/>
  <variable name="C(1002,23)" index="357994" value="3"/>
  <variable name="C(1067,32)" index="358208" value="1"/>
  <variable name="C(1067,50)" index="358209" value="2"/>
  <variable name="C(1067,5)" index="358210" value="3"/>
  <variable name="C(1087,29)" index="358294" value="1"/>
  <variable name="C(1087,28)" index="358295" value="2"/>
  <variable name="C(1101,30)" index="358344" value="1"/>
  <variable name="C(1101,13)" index="358345" value="2"/>
  <variable name="C(1101,44)" index="358346" value="3"/>
  <variable name="C(1101,43)" index="358347" value="4"/>
  <variable name="C(1114,13)" index="358395" value="1"/>
  <variable name="C(1114,41)" index="358396" value="2"/>
  <variable name="C(1114,9)" index="358397" value="3"/>
  <variable name="C(1135,14)" index="358479" value="1"/>
  <variable name="C(1135,32)" index="358480" value="2"/>
  <variable name="C(1161,32)" index="358587" value="1"/>
  <variable name="C(1161,24)" index="358588" value="2"/>
  <variable name="C(1162,50)" index="358590" value="1"/>
  <variable name="C(1162,25)" index="358591" value="2"/>
  <variable name="C(1184,35)" index="358675" value="1"/>
  <variable name="C(1184,49)" index="358676" value="2"/>
 </variables>
</CPLEXSolution>
